# Solution for model GasLib-40
# Objective value = 43.9945488742203
loadshed[innode_1] 0
loadshed[innode_2] 0
loadshed[innode_3] 0
loadshed[innode_4] 0
loadshed[innode_5] 0
loadshed[innode_6] 0
loadshed[innode_7] 0
loadshed[innode_8] 0
loadshed[source_1] -6.9500255349598250e-02
loadshed[source_2] 8.7720366244860570e-02
loadshed[source_3] 2.6006739351444830e-01
loadshed[sink_1] 0
loadshed[sink_2] 0
loadshed[sink_3] 0
loadshed[sink_4] 0
loadshed[sink_5] 0
loadshed[sink_6] 0
loadshed[sink_7] 0
loadshed[sink_8] 0
loadshed[sink_9] 0
loadshed[sink_10] 0
loadshed[sink_11] 0
loadshed[sink_12] 1
loadshed[sink_13] 0
loadshed[sink_14] 0
loadshed[sink_15] 0
loadshed[sink_16] 0
loadshed[sink_17] 0
loadshed[sink_18] 0
loadshed[sink_19] 0
loadshed[sink_20] 0
loadshed[sink_21] 1
loadshed[sink_22] 0
loadshed[sink_23] 0
loadshed[sink_24] 6.9011254262748289e-01
loadshed[sink_25] 0
loadshed[sink_26] 0
loadshed[sink_27] 0
loadshed[sink_28] 0
loadshed[sink_29] 0
flow[source_1,sink_3] 1.6907759245162225e+02
flow[innode_1,sink_16] 1.6354166666666970e+01
flow[innode_6,sink_13] -2.4969846294694165e+00
flow[sink_13,sink_14] -1.8851151296136084e+01
flow[sink_14,sink_10] -3.5205317962802752e+01
flow[sink_25,sink_26] 1.1589808501551818e+02
flow[sink_26,sink_9] 3.2708333333334551e+01
flow[sink_9,sink_18] 1.6354166666667879e+01
flow[sink_26,sink_4] 6.6835585015516983e+01
flow[sink_4,sink_20] 50.4814183488503
flow[sink_18,sink_6] 0
flow[sink_25,innode_8] -1.3636925911828587e+02
flow[sink_6,sink_7] -4.9062500000000313e+01
flow[sink_6,sink_22] 3.2708333333333641e+01
flow[sink_7,sink_24] 5.0679511257797092e+00
flow[sink_22,sink_1] 1.6354166666666970e+01
flow[sink_24,sink_21] 0
flow[sink_21,sink_12] 0
flow[sink_7,sink_5] -7.0484617792446684e+01
flow[sink_5,sink_17] -8.6838784459113356e+01
flow[sink_17,sink_4] 0
flow[sink_17,sink_8] -1.0319295112578001e+02
flow[sink_3,sink_23] 16.3541666666697
flow[sink_8,sink_20] -1.1954711779244668e+02
flow[sink_25,sink_20] 8.5419866110263058e+01
flow[sink_25,sink_15] -7.8805874044692388e+01
flow[sink_15,sink_29] -5.4159705955032557e+01
flow[sink_29,sink_28] 1.6354166666667879e+01
flow[sink_29,sink_2] 5.7354501422992868e+01
flow[sink_2,sink_15] 4.1000334756326204e+01
flow[sink_29,innode_7] -1.4422254071135936e+02
flow[innode_4,sink_19] 4.5252757652585089e+01
flow[sink_19,innode_3] 4.1122339471581647e+01
flow[innode_4,innode_5] 71.7233936435509
flow[sink_27,innode_5] -71.7233936435509
flow[sink_27,sink_19] 5.5369226976884242e+01
flow[sink_10,sink_11] 3.2708333333333641e+01
flow[sink_10,innode_2] -4.3145478491221411e+01
flow[sink_10,innode_3] -4.1122339471581647e+01
flow[innode_6,sink_25] 2.4969846294694165e+00
flow[sink_11,innode_1] 1.6354166666666970e+01
flow[sink_19,innode_2] 4.3145478491221411e+01
flow[source_3,innode_4] 116.976151296136
flow[source_2,innode_7] 1.4422254071135936e+02
flow[sink_3,innode_8] 1.3636925911828587e+02
pressure[innode_1] 7.6747827440283174e+01
pressure[innode_2] 79.1799454828101
pressure[innode_3] 7.9088884718650064e+01
pressure[innode_4] 81.01325
pressure[innode_5] 8.0963914867865711e+01
pressure[innode_6] 7.5186865441667678e+01
pressure[innode_7] 81.01325
pressure[innode_8] 8.0448088198415675e+01
pressure[source_1] 81.01325
pressure[source_2] 81.01325
pressure[source_3] 81.01325
pressure[sink_1] 4.0410876320842712e+00
pressure[sink_2] 7.5703007777599950e+01
pressure[sink_3] 8.0448088198415675e+01
pressure[sink_4] 5.8526582120106667e+01
pressure[sink_5] 3.6129677769525046e+01
pressure[sink_6] 6.1421652424716449e+00
pressure[sink_7] 6.8156764201717763e+00
pressure[sink_8] 4.6492277657636620e+01
pressure[sink_9] 6.5066553209310953e+01
pressure[sink_10] 7.6899528747886720e+01
pressure[sink_11] 7.6747827440283174e+01
pressure[sink_12] 1.01325
pressure[sink_13] 7.5200630900645038e+01
pressure[sink_14] 7.5234366641652514e+01
pressure[sink_15] 7.5569150720948784e+01
pressure[sink_16] 75.7261776054655
pressure[sink_17] 4.2598539522966306e+01
pressure[sink_18] 6.4474810715511254e+01
pressure[sink_19] 79.1799454828101
pressure[sink_20] 54.8230305442504
pressure[sink_21] 1.01325
pressure[sink_22] 5.1048567744392814e+00
pressure[sink_23] 8.0283370186755889e+01
pressure[sink_24] 1.01325
pressure[sink_25] 7.5186865441667678e+01
pressure[sink_26] 6.7024231377195562e+01
pressure[sink_27] 8.0368743231205457e+01
pressure[sink_28] 7.6860579753508077e+01
pressure[sink_29] 7.7155862027125252e+01
interdiction[source_1,sink_3] 0
interdiction[innode_1,sink_16] 0
interdiction[innode_6,sink_13] 0
interdiction[sink_13,sink_14] 0
interdiction[sink_14,sink_10] 0
interdiction[sink_25,sink_26] 0
interdiction[sink_26,sink_9] 0
interdiction[sink_9,sink_18] 0
interdiction[sink_26,sink_4] 0
interdiction[sink_4,sink_20] 0
interdiction[sink_18,sink_6] 1
interdiction[sink_25,innode_8] 0
interdiction[sink_6,sink_7] 0
interdiction[sink_6,sink_22] 0
interdiction[sink_7,sink_24] 0
interdiction[sink_22,sink_1] 0
interdiction[sink_24,sink_21] 0
interdiction[sink_21,sink_12] 0
interdiction[sink_7,sink_5] 0
interdiction[sink_5,sink_17] 0
interdiction[sink_17,sink_4] 1
interdiction[sink_17,sink_8] 0
interdiction[sink_3,sink_23] 0
interdiction[sink_8,sink_20] 0
interdiction[sink_25,sink_20] 0
interdiction[sink_25,sink_15] 0
interdiction[sink_15,sink_29] 0
interdiction[sink_29,sink_28] 0
interdiction[sink_29,sink_2] 0
interdiction[sink_2,sink_15] 0
interdiction[sink_29,innode_7] 0
interdiction[innode_4,sink_19] 0
interdiction[sink_19,innode_3] 0
interdiction[innode_4,innode_5] 0
interdiction[sink_27,innode_5] 0
interdiction[sink_27,sink_19] 0
interdiction[sink_10,sink_11] 0
interdiction[sink_10,innode_2] 0
interdiction[sink_10,innode_3] 0
interdiction[innode_6,sink_25] 0
interdiction[sink_11,innode_1] 0
interdiction[sink_19,innode_2] 0
interdiction[source_3,innode_4] 0
interdiction[source_2,innode_7] 0
interdiction[sink_3,innode_8] 0
WCcheckFlow[source_1,sink_3] 39
WCcheckFlow[innode_1,sink_16] 1
WCcheckFlow[innode_6,sink_13] 13
WCcheckFlow[sink_13,sink_14] 12
WCcheckFlow[sink_14,sink_10] 11
WCcheckFlow[sink_25,sink_26] 15
WCcheckFlow[sink_26,sink_9] 2
WCcheckFlow[sink_9,sink_18] 1
WCcheckFlow[sink_26,sink_4] 12
WCcheckFlow[sink_4,sink_20] 11
WCcheckFlow[sink_18,sink_6] 0
WCcheckFlow[sink_25,innode_8] -36
WCcheckFlow[sink_6,sink_7] -3
WCcheckFlow[sink_6,sink_22] 2
WCcheckFlow[sink_7,sink_24] 3
WCcheckFlow[sink_22,sink_1] 1
WCcheckFlow[sink_24,sink_21] 2
WCcheckFlow[sink_21,sink_12] 1
WCcheckFlow[sink_7,sink_5] -7
WCcheckFlow[sink_5,sink_17] -8
WCcheckFlow[sink_17,sink_4] 0
WCcheckFlow[sink_17,sink_8] -9
WCcheckFlow[sink_3,sink_23] 1
WCcheckFlow[sink_8,sink_20] -10
WCcheckFlow[sink_25,sink_20] 0
WCcheckFlow[sink_25,sink_15] 6
WCcheckFlow[sink_15,sink_29] 5
WCcheckFlow[sink_29,sink_28] 1
WCcheckFlow[sink_29,sink_2] 1
WCcheckFlow[sink_2,sink_15] 0
WCcheckFlow[sink_29,innode_7] 2
WCcheckFlow[innode_4,sink_19] -4
WCcheckFlow[sink_19,innode_3] -5
WCcheckFlow[innode_4,innode_5] 2
WCcheckFlow[sink_27,innode_5] -1
WCcheckFlow[sink_27,sink_19] 0
WCcheckFlow[sink_10,sink_11] 3
WCcheckFlow[sink_10,innode_2] 1
WCcheckFlow[sink_10,innode_3] 6
WCcheckFlow[innode_6,sink_25] -14
WCcheckFlow[sink_11,innode_1] 2
WCcheckFlow[sink_19,innode_2] 0
WCcheckFlow[source_3,innode_4] -1
WCcheckFlow[source_2,innode_7] -1
WCcheckFlow[sink_3,innode_8] 37
